nN = 10;
nR = 50;
nH = 2;

a = [[20, 14, 17, 16, 12, 13, 23, 25, 12, 14, 24, 20, 22, 13, 11, 11, 17, 21, 14, 14, 19, 17, 11, 17, 14, 15, 16, 11, 19, 16, 21, 19, 20, 23, 17, 12, 16, 17, 24, 11, 19, 22, 18, 14, 11, 23, 16, 13, 23, 12], [17, 11, 13, 13, 14, 16, 18, 13, 25, 25, 25, 16, 14, 11, 18, 12, 24, 17, 16, 18, 10, 16, 21, 24, 18, 11, 22, 10, 17, 19, 20, 24, 23, 11, 13, 13, 12, 15, 14, 15, 12, 22, 18, 23, 13, 12, 11, 25, 13, 11], [20, 15, 11, 25, 21, 11, 13, 11, 24, 24, 14, 19, 13, 12, 11, 12, 25, 21, 12, 15, 19, 19, 18, 14, 12, 24, 23, 11, 17, 10, 17, 23, 16, 23, 15, 10, 20, 12, 10, 21, 11, 25, 21, 18, 10, 18, 24, 13, 15, 24], [19, 18, 20, 20, 17, 18, 10, 15, 12, 15, 11, 19, 17, 24, 11, 24, 11, 23, 21, 25, 22, 23, 22, 21, 15, 14, 11, 22, 18, 16, 16, 11, 12, 19, 22, 15, 18, 16, 13, 22, 17, 17, 21, 15, 21, 12, 16, 12, 16, 11], [13, 23, 20, 15, 20, 21, 11, 21, 14, 24, 18, 22, 25, 15, 16, 12, 22, 15, 17, 10, 24, 21, 21, 18, 17, 11, 24, 23, 11, 17, 23, 24, 15, 15, 18, 21, 13, 13, 20, 10, 11, 10, 17, 24, 21, 14, 21, 18, 22, 15], [14, 16, 14, 16, 19, 19, 16, 14, 12, 23, 11, 18, 25, 24, 25, 14, 20, 23, 24, 16, 11, 16, 16, 15, 10, 12, 17, 17, 11, 15, 24, 14, 20, 14, 12, 23, 20, 17, 21, 25, 22, 15, 22, 20, 17, 19, 19, 18, 11, 13], [11, 13, 21, 15, 14, 23, 11, 20, 13, 24, 13, 12, 11, 12, 19, 10, 23, 14, 23, 15, 19, 16, 23, 15, 24, 13, 19, 18, 22, 16, 24, 22, 12, 24, 12, 16, 13, 11, 16, 22, 12, 21, 18, 15, 22, 12, 18, 15, 13, 16], [11, 10, 16, 18, 13, 21, 16, 19, 25, 21, 24, 12, 14, 12, 17, 20, 10, 12, 12, 23, 20, 12, 22, 25, 23, 14, 19, 22, 24, 22, 11, 24, 18, 14, 19, 19, 22, 23, 14, 24, 21, 14, 19, 16, 23, 14, 22, 16, 18, 18], [24, 21, 21, 19, 21, 15, 16, 10, 12, 17, 18, 18, 21, 20, 18, 15, 24, 13, 12, 15, 16, 22, 12, 11, 25, 14, 23, 15, 12, 18, 25, 11, 20, 23, 25, 17, 21, 15, 17, 20, 20, 17, 25, 11, 12, 16, 19, 17, 23, 11], [11, 16, 15, 15, 17, 22, 22, 21, 13, 16, 15, 11, 18, 23, 17, 23, 16, 23, 25, 15, 12, 12, 22, 17, 11, 15, 19, 24, 22, 15, 21, 12, 14, 23, 12, 13, 22, 17, 19, 24, 21, 14, 23, 22, 19, 12, 21, 12, 21, 15]];
c = [[[0, 0, 0, 0, 0, 0, 0, 0, 0, 0, 0, 0, 0, 0, 0, 0, 0, 0, 0, 0, 0, 0, 0, 0, 0, 0, 0, 0, 0, 0, 0, 0, 0, 0, 0, 0, 0, 0, 0, 0, 0, 0, 0, 0, 0, 0, 0, 0, 0, 0], [31, 47, 46, 39, 38, 35, 41, 32, 36, 41, 44, 50, 42, 44, 39, 45, 31, 36, 33, 48, 41, 46, 46, 36, 31, 34, 45, 48, 49, 47, 44, 42, 34, 37, 41, 34, 43, 49, 43, 36, 48, 36, 31, 40, 43, 38, 32, 37, 36, 39], [48, 46, 45, 40, 43, 41, 33, 48, 32, 49, 39, 30, 40, 42, 37, 49, 45, 37, 50, 49, 50, 47, 31, 48, 45, 34, 50, 47, 44, 42, 33, 33, 48, 40, 44, 44, 45, 35, 45, 31, 49, 42, 47, 46, 36, 48, 31, 40, 36, 43], [49, 36, 42, 49, 35, 37, 37, 50, 47, 50, 38, 39, 32, 44, 33, 36, 38, 44, 46, 33, 43, 43, 44, 45, 43, 33, 30, 45, 35, 30, 32, 38, 49, 37, 50, 30, 34, 48, 31, 40, 43, 38, 34, 34, 31, 43, 32, 36, 43, 49], [49, 30, 45, 38, 32, 47, 44, 50, 34, 38, 48, 42, 36, 30, 47, 40, 33, 42, 32, 47, 50, 30, 49, 33, 36, 34, 44, 49, 38, 41, 34, 49, 49, 48, 50, 36, 50, 33, 36, 45, 50, 41, 38, 36, 37, 43, 39, 49, 38, 45], [33, 41, 35, 47, 35, 43, 36, 30, 35, 37, 39, 35, 41, 30, 47, 49, 31, 50, 44, 45, 42, 43, 33, 41, 48, 36, 42, 31, 36, 38, 42, 45, 44, 43, 37, 34, 43, 41, 38, 43, 30, 44, 30, 41, 36, 31, 48, 31, 43, 38], [48, 36, 35, 43, 41, 30, 40, 41, 45, 49, 50, 38, 44, 40, 41, 47, 37, 32, 33, 34, 35, 35, 37, 33, 42, 30, 32, 42, 45, 37, 47, 46, 33, 35, 31, 41, 41, 48, 49, 32, 43, 45, 46, 39, 31, 33, 32, 40, 46, 31], [49, 30, 46, 35, 41, 44, 41, 38, 48, 36, 38, 42, 44, 42, 33, 49, 38, 46, 36, 48, 38, 38, 43, 34, 45, 48, 47, 31, 31, 31, 31, 32, 40, 36, 39, 34, 43, 41, 42, 41, 44, 40, 43, 43, 39, 34, 46, 50, 50, 40], [48, 40, 34, 46, 45, 31, 49, 38, 37, 44, 41, 40, 49, 46, 39, 45, 47, 39, 33, 45, 38, 37, 36, 44, 31, 49, 43, 49, 31, 34, 45, 34, 41, 37, 38, 38, 31, 34, 34, 36, 38, 40, 39, 41, 31, 43, 44, 46, 31, 43], [38, 46, 33, 44, 31, 44, 31, 40, 41, 42, 40, 33, 50, 34, 50, 32, 39, 43, 41, 43, 37, 46, 48, 39, 48, 50, 33, 44, 32, 31, 38, 45, 37, 49, 37, 46, 39, 44, 37, 48, 38, 37, 48, 47, 43, 40, 32, 41, 47, 41]], [[0, 0, 0, 0, 0, 0, 0, 0, 0, 0, 0, 0, 0, 0, 0, 0, 0, 0, 0, 0, 0, 0, 0, 0, 0, 0, 0, 0, 0, 0, 0, 0, 0, 0, 0, 0, 0, 0, 0, 0, 0, 0, 0, 0, 0, 0, 0, 0, 0, 0], [0, 0, 0, 0, 0, 0, 0, 0, 0, 0, 0, 0, 0, 0, 0, 0, 0, 0, 0, 0, 0, 0, 0, 0, 0, 0, 0, 0, 0, 0, 0, 0, 0, 0, 0, 0, 0, 0, 0, 0, 0, 0, 0, 0, 0, 0, 0, 0, 0, 0], [47, 31, 30, 43, 31, 36, 32, 48, 50, 38, 33, 33, 36, 39, 37, 41, 36, 31, 42, 41, 32, 38, 44, 40, 37, 30, 47, 46, 44, 48, 37, 43, 49, 47, 43, 30, 36, 42, 48, 44, 34, 40, 46, 49, 38, 39, 49, 43, 42, 30], [47, 30, 30, 36, 31, 38, 32, 40, 47, 42, 40, 40, 49, 35, 42, 41, 36, 30, 50, 32, 36, 36, 34, 36, 39, 50, 30, 33, 37, 49, 38, 47, 43, 34, 44, 47, 36, 35, 30, 41, 49, 31, 47, 40, 48, 39, 44, 41, 30, 49], [46, 38, 45, 47, 39, 38, 30, 40, 44, 30, 50, 46, 33, 35, 43, 49, 45, 33, 46, 45, 38, 44, 37, 33, 40, 32, 30, 36, 34, 40, 38, 36, 45, 30, 31, 37, 45, 44, 39, 43, 38, 37, 44, 39, 32, 45, 42, 50, 47, 46], [43, 32, 34, 47, 42, 41, 47, 44, 30, 40, 43, 32, 35, 37, 30, 33, 49, 38, 41, 36, 34, 50, 37, 42, 41, 38, 31, 47, 44, 40, 30, 47, 48, 34, 40, 43, 44, 40, 35, 49, 37, 34, 47, 37, 46, 41, 37, 38, 43, 34], [32, 35, 42, 30, 49, 48, 32, 48, 33, 31, 39, 30, 36, 34, 35, 44, 50, 49, 44, 39, 33, 43, 42, 42, 34, 48, 34, 45, 36, 46, 35, 34, 31, 36, 43, 36, 38, 50, 45, 49, 38, 46, 32, 31, 38, 38, 45, 35, 34, 35], [41, 39, 50, 50, 47, 35, 40, 47, 48, 48, 33, 49, 41, 34, 50, 31, 41, 49, 32, 38, 46, 50, 50, 49, 44, 36, 32, 40, 45, 42, 42, 32, 38, 30, 42, 46, 47, 50, 42, 47, 42, 38, 37, 45, 39, 39, 43, 46, 43, 31], [41, 48, 33, 34, 48, 34, 39, 31, 38, 36, 31, 45, 31, 45, 50, 32, 43, 30, 47, 32, 30, 48, 32, 34, 34, 33, 36, 44, 46, 37, 48, 40, 45, 35, 46, 33, 44, 48, 36, 41, 42, 42, 35, 44, 50, 50, 41, 38, 33, 46], [47, 44, 41, 41, 42, 32, 40, 41, 39, 50, 45, 46, 40, 32, 50, 46, 46, 37, 44, 50, 44, 35, 36, 46, 32, 48, 44, 46, 44, 49, 30, 41, 42, 36, 44, 40, 35, 32, 49, 36, 34, 30, 41, 34, 35, 35, 32, 49, 38, 35]], [[0, 0, 0, 0, 0, 0, 0, 0, 0, 0, 0, 0, 0, 0, 0, 0, 0, 0, 0, 0, 0, 0, 0, 0, 0, 0, 0, 0, 0, 0, 0, 0, 0, 0, 0, 0, 0, 0, 0, 0, 0, 0, 0, 0, 0, 0, 0, 0, 0, 0], [0, 0, 0, 0, 0, 0, 0, 0, 0, 0, 0, 0, 0, 0, 0, 0, 0, 0, 0, 0, 0, 0, 0, 0, 0, 0, 0, 0, 0, 0, 0, 0, 0, 0, 0, 0, 0, 0, 0, 0, 0, 0, 0, 0, 0, 0, 0, 0, 0, 0], [0, 0, 0, 0, 0, 0, 0, 0, 0, 0, 0, 0, 0, 0, 0, 0, 0, 0, 0, 0, 0, 0, 0, 0, 0, 0, 0, 0, 0, 0, 0, 0, 0, 0, 0, 0, 0, 0, 0, 0, 0, 0, 0, 0, 0, 0, 0, 0, 0, 0], [46, 44, 44, 40, 31, 36, 43, 37, 49, 34, 38, 36, 40, 30, 41, 30, 32, 43, 32, 48, 47, 48, 40, 40, 42, 32, 30, 42, 31, 36, 43, 34, 50, 43, 41, 38, 38, 34, 43, 34, 39, 41, 36, 42, 48, 40, 30, 35, 30, 49], [32, 37, 37, 43, 45, 37, 47, 47, 48, 48, 34, 36, 34, 37, 40, 38, 46, 34, 40, 35, 31, 40, 31, 33, 41, 39, 38, 33, 34, 41, 48, 45, 32, 37, 41, 36, 34, 36, 37, 45, 43, 39, 30, 34, 48, 35, 42, 50, 30, 47], [45, 42, 50, 38, 32, 39, 43, 30, 37, 36, 46, 48, 38, 37, 32, 42, 34, 47, 36, 32, 32, 48, 49, 37, 39, 49, 40, 45, 37, 42, 47, 32, 39, 38, 33, 41, 31, 42, 41, 44, 47, 34, 30, 39, 38, 41, 45, 39, 34, 43], [47, 50, 39, 34, 38, 48, 37, 47, 41, 48, 41, 46, 50, 34, 44, 30, 49, 50, 48, 36, 37, 45, 31, 45, 33, 37, 44, 32, 38, 30, 41, 37, 37, 39, 42, 33, 50, 38, 34, 34, 46, 38, 45, 36, 33, 31, 35, 34, 48, 39], [33, 49, 38, 30, 35, 43, 36, 45, 42, 32, 38, 46, 36, 48, 37, 37, 44, 33, 37, 33, 48, 46, 35, 31, 47, 37, 47, 32, 32, 39, 34, 47, 43, 45, 30, 39, 33, 39, 44, 48, 42, 43, 32, 35, 49, 33, 50, 49, 47, 32], [33, 50, 30, 30, 33, 46, 49, 45, 33, 41, 49, 39, 39, 30, 46, 49, 46, 45, 31, 37, 45, 34, 37, 35, 46, 35, 35, 43, 40, 48, 43, 48, 41, 32, 50, 31, 33, 46, 46, 36, 42, 46, 46, 44, 48, 42, 42, 42, 43, 41], [44, 45, 34, 34, 49, 48, 37, 35, 46, 34, 32, 40, 40, 32, 32, 49, 39, 35, 50, 48, 37, 45, 48, 37, 40, 38, 36, 35, 37, 36, 37, 50, 45, 32, 30, 40, 42, 42, 50, 40, 50, 41, 41, 42, 36, 34, 33, 30, 37, 45]], [[0, 0, 0, 0, 0, 0, 0, 0, 0, 0, 0, 0, 0, 0, 0, 0, 0, 0, 0, 0, 0, 0, 0, 0, 0, 0, 0, 0, 0, 0, 0, 0, 0, 0, 0, 0, 0, 0, 0, 0, 0, 0, 0, 0, 0, 0, 0, 0, 0, 0], [0, 0, 0, 0, 0, 0, 0, 0, 0, 0, 0, 0, 0, 0, 0, 0, 0, 0, 0, 0, 0, 0, 0, 0, 0, 0, 0, 0, 0, 0, 0, 0, 0, 0, 0, 0, 0, 0, 0, 0, 0, 0, 0, 0, 0, 0, 0, 0, 0, 0], [0, 0, 0, 0, 0, 0, 0, 0, 0, 0, 0, 0, 0, 0, 0, 0, 0, 0, 0, 0, 0, 0, 0, 0, 0, 0, 0, 0, 0, 0, 0, 0, 0, 0, 0, 0, 0, 0, 0, 0, 0, 0, 0, 0, 0, 0, 0, 0, 0, 0], [0, 0, 0, 0, 0, 0, 0, 0, 0, 0, 0, 0, 0, 0, 0, 0, 0, 0, 0, 0, 0, 0, 0, 0, 0, 0, 0, 0, 0, 0, 0, 0, 0, 0, 0, 0, 0, 0, 0, 0, 0, 0, 0, 0, 0, 0, 0, 0, 0, 0], [47, 48, 33, 38, 44, 42, 46, 38, 37, 46, 43, 45, 46, 47, 33, 46, 50, 30, 31, 30, 41, 34, 32, 44, 47, 39, 43, 45, 38, 50, 32, 45, 41, 32, 43, 30, 30, 35, 40, 38, 33, 39, 30, 43, 34, 40, 47, 38, 35, 50], [34, 41, 38, 44, 33, 43, 39, 50, 33, 37, 45, 36, 32, 33, 34, 45, 34, 40, 31, 47, 35, 49, 42, 43, 49, 34, 32, 37, 30, 35, 34, 36, 33, 31, 35, 46, 47, 45, 45, 47, 42, 36, 32, 50, 40, 41, 41, 37, 39, 31], [41, 34, 50, 49, 45, 44, 40, 49, 47, 47, 38, 49, 32, 34, 43, 31, 38, 37, 35, 43, 38, 46, 43, 35, 34, 43, 34, 43, 41, 47, 30, 40, 33, 33, 39, 50, 36, 50, 32, 40, 44, 37, 37, 47, 41, 45, 48, 45, 32, 31], [43, 46, 37, 44, 49, 44, 44, 50, 42, 36, 44, 46, 31, 38, 39, 42, 35, 48, 38, 48, 39, 47, 43, 33, 38, 43, 43, 43, 31, 49, 31, 42, 39, 35, 30, 42, 34, 48, 43, 37, 50, 41, 38, 50, 30, 41, 49, 31, 40, 44], [47, 32, 41, 38, 40, 50, 30, 32, 33, 35, 45, 35, 32, 44, 46, 48, 39, 50, 37, 49, 35, 38, 44, 35, 50, 31, 35, 30, 45, 50, 47, 50, 44, 35, 33, 36, 39, 46, 48, 50, 41, 46, 45, 50, 44, 37, 47, 38, 36, 34], [35, 34, 34, 37, 32, 48, 38, 35, 38, 39, 43, 34, 39, 47, 47, 44, 49, 42, 43, 50, 43, 33, 31, 45, 48, 46, 33, 47, 42, 46, 46, 39, 35, 50, 36, 30, 39, 50, 31, 42, 32, 39, 46, 31, 47, 39, 37, 37, 44, 44]], [[0, 0, 0, 0, 0, 0, 0, 0, 0, 0, 0, 0, 0, 0, 0, 0, 0, 0, 0, 0, 0, 0, 0, 0, 0, 0, 0, 0, 0, 0, 0, 0, 0, 0, 0, 0, 0, 0, 0, 0, 0, 0, 0, 0, 0, 0, 0, 0, 0, 0], [0, 0, 0, 0, 0, 0, 0, 0, 0, 0, 0, 0, 0, 0, 0, 0, 0, 0, 0, 0, 0, 0, 0, 0, 0, 0, 0, 0, 0, 0, 0, 0, 0, 0, 0, 0, 0, 0, 0, 0, 0, 0, 0, 0, 0, 0, 0, 0, 0, 0], [0, 0, 0, 0, 0, 0, 0, 0, 0, 0, 0, 0, 0, 0, 0, 0, 0, 0, 0, 0, 0, 0, 0, 0, 0, 0, 0, 0, 0, 0, 0, 0, 0, 0, 0, 0, 0, 0, 0, 0, 0, 0, 0, 0, 0, 0, 0, 0, 0, 0], [0, 0, 0, 0, 0, 0, 0, 0, 0, 0, 0, 0, 0, 0, 0, 0, 0, 0, 0, 0, 0, 0, 0, 0, 0, 0, 0, 0, 0, 0, 0, 0, 0, 0, 0, 0, 0, 0, 0, 0, 0, 0, 0, 0, 0, 0, 0, 0, 0, 0], [0, 0, 0, 0, 0, 0, 0, 0, 0, 0, 0, 0, 0, 0, 0, 0, 0, 0, 0, 0, 0, 0, 0, 0, 0, 0, 0, 0, 0, 0, 0, 0, 0, 0, 0, 0, 0, 0, 0, 0, 0, 0, 0, 0, 0, 0, 0, 0, 0, 0], [44, 36, 39, 30, 50, 50, 33, 47, 47, 38, 43, 39, 32, 50, 44, 33, 40, 31, 49, 46, 30, 50, 43, 49, 49, 42, 33, 48, 39, 38, 43, 30, 31, 33, 32, 49, 48, 45, 44, 32, 46, 30, 36, 45, 48, 38, 31, 48, 49, 45], [42, 43, 34, 42, 45, 36, 36, 41, 31, 32, 36, 39, 44, 40, 48, 42, 31, 42, 35, 35, 36, 40, 47, 34, 47, 47, 37, 37, 41, 45, 41, 32, 49, 40, 37, 39, 39, 38, 41, 31, 39, 48, 34, 33, 34, 34, 42, 37, 38, 44], [43, 49, 31, 30, 50, 38, 46, 39, 49, 32, 47, 41, 42, 46, 48, 43, 42, 31, 38, 32, 35, 35, 32, 43, 41, 48, 42, 36, 32, 41, 44, 48, 36, 42, 35, 46, 44, 36, 39, 30, 30, 38, 39, 40, 43, 33, 41, 46, 32, 43], [45, 37, 48, 41, 39, 39, 30, 48, 46, 41, 37, 31, 37, 32, 47, 39, 39, 46, 30, 40, 41, 36, 35, 42, 50, 32, 49, 42, 30, 33, 39, 42, 46, 32, 39, 46, 40, 35, 40, 39, 45, 48, 43, 44, 39, 44, 40, 34, 47, 49], [43, 41, 40, 47, 49, 50, 45, 45, 36, 40, 48, 38, 32, 42, 30, 42, 30, 35, 38, 50, 43, 31, 44, 31, 48, 43, 30, 35, 33, 45, 37, 43, 49, 45, 34, 46, 39, 30, 30, 42, 33, 46, 47, 30, 41, 35, 41, 34, 44, 41]], [[0, 0, 0, 0, 0, 0, 0, 0, 0, 0, 0, 0, 0, 0, 0, 0, 0, 0, 0, 0, 0, 0, 0, 0, 0, 0, 0, 0, 0, 0, 0, 0, 0, 0, 0, 0, 0, 0, 0, 0, 0, 0, 0, 0, 0, 0, 0, 0, 0, 0], [0, 0, 0, 0, 0, 0, 0, 0, 0, 0, 0, 0, 0, 0, 0, 0, 0, 0, 0, 0, 0, 0, 0, 0, 0, 0, 0, 0, 0, 0, 0, 0, 0, 0, 0, 0, 0, 0, 0, 0, 0, 0, 0, 0, 0, 0, 0, 0, 0, 0], [0, 0, 0, 0, 0, 0, 0, 0, 0, 0, 0, 0, 0, 0, 0, 0, 0, 0, 0, 0, 0, 0, 0, 0, 0, 0, 0, 0, 0, 0, 0, 0, 0, 0, 0, 0, 0, 0, 0, 0, 0, 0, 0, 0, 0, 0, 0, 0, 0, 0], [0, 0, 0, 0, 0, 0, 0, 0, 0, 0, 0, 0, 0, 0, 0, 0, 0, 0, 0, 0, 0, 0, 0, 0, 0, 0, 0, 0, 0, 0, 0, 0, 0, 0, 0, 0, 0, 0, 0, 0, 0, 0, 0, 0, 0, 0, 0, 0, 0, 0], [0, 0, 0, 0, 0, 0, 0, 0, 0, 0, 0, 0, 0, 0, 0, 0, 0, 0, 0, 0, 0, 0, 0, 0, 0, 0, 0, 0, 0, 0, 0, 0, 0, 0, 0, 0, 0, 0, 0, 0, 0, 0, 0, 0, 0, 0, 0, 0, 0, 0], [0, 0, 0, 0, 0, 0, 0, 0, 0, 0, 0, 0, 0, 0, 0, 0, 0, 0, 0, 0, 0, 0, 0, 0, 0, 0, 0, 0, 0, 0, 0, 0, 0, 0, 0, 0, 0, 0, 0, 0, 0, 0, 0, 0, 0, 0, 0, 0, 0, 0], [39, 44, 41, 36, 36, 41, 39, 40, 50, 31, 35, 36, 46, 41, 30, 35, 32, 34, 30, 37, 47, 43, 38, 46, 30, 43, 32, 34, 50, 34, 49, 30, 37, 39, 40, 37, 47, 31, 49, 30, 32, 41, 40, 36, 50, 30, 50, 39, 30, 31], [36, 50, 33, 33, 49, 30, 38, 38, 30, 39, 42, 48, 35, 47, 46, 47, 35, 50, 42, 30, 31, 46, 43, 40, 33, 43, 45, 32, 39, 50, 47, 37, 44, 32, 48, 34, 42, 35, 44, 43, 38, 41, 36, 45, 42, 46, 37, 33, 50, 41], [40, 31, 38, 49, 33, 39, 36, 38, 39, 43, 31, 31, 39, 35, 45, 43, 42, 40, 44, 34, 31, 45, 43, 50, 32, 32, 30, 47, 31, 35, 31, 46, 35, 32, 38, 44, 44, 33, 45, 49, 31, 49, 34, 44, 30, 40, 47, 41, 44, 39], [39, 48, 30, 41, 42, 46, 40, 50, 42, 33, 30, 32, 39, 49, 41, 48, 38, 41, 44, 49, 35, 44, 30, 34, 39, 50, 30, 42, 43, 38, 48, 43, 31, 40, 49, 35, 30, 36, 38, 47, 39, 35, 42, 48, 37, 42, 34, 32, 49, 50]], [[0, 0, 0, 0, 0, 0, 0, 0, 0, 0, 0, 0, 0, 0, 0, 0, 0, 0, 0, 0, 0, 0, 0, 0, 0, 0, 0, 0, 0, 0, 0, 0, 0, 0, 0, 0, 0, 0, 0, 0, 0, 0, 0, 0, 0, 0, 0, 0, 0, 0], [0, 0, 0, 0, 0, 0, 0, 0, 0, 0, 0, 0, 0, 0, 0, 0, 0, 0, 0, 0, 0, 0, 0, 0, 0, 0, 0, 0, 0, 0, 0, 0, 0, 0, 0, 0, 0, 0, 0, 0, 0, 0, 0, 0, 0, 0, 0, 0, 0, 0], [0, 0, 0, 0, 0, 0, 0, 0, 0, 0, 0, 0, 0, 0, 0, 0, 0, 0, 0, 0, 0, 0, 0, 0, 0, 0, 0, 0, 0, 0, 0, 0, 0, 0, 0, 0, 0, 0, 0, 0, 0, 0, 0, 0, 0, 0, 0, 0, 0, 0], [0, 0, 0, 0, 0, 0, 0, 0, 0, 0, 0, 0, 0, 0, 0, 0, 0, 0, 0, 0, 0, 0, 0, 0, 0, 0, 0, 0, 0, 0, 0, 0, 0, 0, 0, 0, 0, 0, 0, 0, 0, 0, 0, 0, 0, 0, 0, 0, 0, 0], [0, 0, 0, 0, 0, 0, 0, 0, 0, 0, 0, 0, 0, 0, 0, 0, 0, 0, 0, 0, 0, 0, 0, 0, 0, 0, 0, 0, 0, 0, 0, 0, 0, 0, 0, 0, 0, 0, 0, 0, 0, 0, 0, 0, 0, 0, 0, 0, 0, 0], [0, 0, 0, 0, 0, 0, 0, 0, 0, 0, 0, 0, 0, 0, 0, 0, 0, 0, 0, 0, 0, 0, 0, 0, 0, 0, 0, 0, 0, 0, 0, 0, 0, 0, 0, 0, 0, 0, 0, 0, 0, 0, 0, 0, 0, 0, 0, 0, 0, 0], [0, 0, 0, 0, 0, 0, 0, 0, 0, 0, 0, 0, 0, 0, 0, 0, 0, 0, 0, 0, 0, 0, 0, 0, 0, 0, 0, 0, 0, 0, 0, 0, 0, 0, 0, 0, 0, 0, 0, 0, 0, 0, 0, 0, 0, 0, 0, 0, 0, 0], [43, 36, 50, 45, 30, 45, 35, 30, 45, 38, 31, 49, 42, 41, 38, 43, 47, 47, 31, 31, 36, 48, 47, 48, 50, 45, 48, 49, 34, 43, 35, 48, 48, 48, 31, 30, 33, 33, 36, 35, 38, 30, 46, 33, 34, 50, 47, 46, 44, 41], [31, 33, 50, 46, 39, 34, 50, 39, 31, 34, 48, 33, 40, 46, 45, 41, 35, 49, 48, 32, 34, 40, 32, 42, 49, 32, 42, 31, 34, 41, 48, 42, 42, 45, 36, 31, 44, 49, 48, 47, 41, 50, 42, 39, 42, 48, 34, 39, 43, 41], [43, 30, 45, 36, 39, 42, 41, 46, 47, 30, 30, 49, 35, 42, 34, 47, 43, 46, 36, 33, 40, 41, 47, 43, 37, 39, 30, 32, 37, 46, 42, 41, 41, 32, 34, 35, 32, 34, 39, 30, 36, 47, 47, 47, 34, 31, 34, 35, 36, 39]], [[0, 0, 0, 0, 0, 0, 0, 0, 0, 0, 0, 0, 0, 0, 0, 0, 0, 0, 0, 0, 0, 0, 0, 0, 0, 0, 0, 0, 0, 0, 0, 0, 0, 0, 0, 0, 0, 0, 0, 0, 0, 0, 0, 0, 0, 0, 0, 0, 0, 0], [0, 0, 0, 0, 0, 0, 0, 0, 0, 0, 0, 0, 0, 0, 0, 0, 0, 0, 0, 0, 0, 0, 0, 0, 0, 0, 0, 0, 0, 0, 0, 0, 0, 0, 0, 0, 0, 0, 0, 0, 0, 0, 0, 0, 0, 0, 0, 0, 0, 0], [0, 0, 0, 0, 0, 0, 0, 0, 0, 0, 0, 0, 0, 0, 0, 0, 0, 0, 0, 0, 0, 0, 0, 0, 0, 0, 0, 0, 0, 0, 0, 0, 0, 0, 0, 0, 0, 0, 0, 0, 0, 0, 0, 0, 0, 0, 0, 0, 0, 0], [0, 0, 0, 0, 0, 0, 0, 0, 0, 0, 0, 0, 0, 0, 0, 0, 0, 0, 0, 0, 0, 0, 0, 0, 0, 0, 0, 0, 0, 0, 0, 0, 0, 0, 0, 0, 0, 0, 0, 0, 0, 0, 0, 0, 0, 0, 0, 0, 0, 0], [0, 0, 0, 0, 0, 0, 0, 0, 0, 0, 0, 0, 0, 0, 0, 0, 0, 0, 0, 0, 0, 0, 0, 0, 0, 0, 0, 0, 0, 0, 0, 0, 0, 0, 0, 0, 0, 0, 0, 0, 0, 0, 0, 0, 0, 0, 0, 0, 0, 0], [0, 0, 0, 0, 0, 0, 0, 0, 0, 0, 0, 0, 0, 0, 0, 0, 0, 0, 0, 0, 0, 0, 0, 0, 0, 0, 0, 0, 0, 0, 0, 0, 0, 0, 0, 0, 0, 0, 0, 0, 0, 0, 0, 0, 0, 0, 0, 0, 0, 0], [0, 0, 0, 0, 0, 0, 0, 0, 0, 0, 0, 0, 0, 0, 0, 0, 0, 0, 0, 0, 0, 0, 0, 0, 0, 0, 0, 0, 0, 0, 0, 0, 0, 0, 0, 0, 0, 0, 0, 0, 0, 0, 0, 0, 0, 0, 0, 0, 0, 0], [0, 0, 0, 0, 0, 0, 0, 0, 0, 0, 0, 0, 0, 0, 0, 0, 0, 0, 0, 0, 0, 0, 0, 0, 0, 0, 0, 0, 0, 0, 0, 0, 0, 0, 0, 0, 0, 0, 0, 0, 0, 0, 0, 0, 0, 0, 0, 0, 0, 0], [44, 39, 40, 38, 50, 48, 38, 50, 50, 50, 47, 32, 34, 50, 31, 40, 45, 38, 34, 40, 33, 34, 32, 49, 33, 50, 42, 30, 45, 35, 41, 47, 32, 50, 41, 30, 48, 45, 42, 33, 38, 30, 33, 31, 42, 43, 44, 32, 43, 35], [36, 40, 43, 40, 42, 42, 31, 39, 41, 41, 46, 32, 32, 39, 39, 44, 48, 42, 46, 31, 46, 36, 42, 46, 30, 50, 41, 32, 36, 41, 38, 42, 35, 31, 47, 31, 49, 33, 46, 50, 36, 40, 45, 37, 36, 38, 46, 30, 49, 32]], [[0, 0, 0, 0, 0, 0, 0, 0, 0, 0, 0, 0, 0, 0, 0, 0, 0, 0, 0, 0, 0, 0, 0, 0, 0, 0, 0, 0, 0, 0, 0, 0, 0, 0, 0, 0, 0, 0, 0, 0, 0, 0, 0, 0, 0, 0, 0, 0, 0, 0], [0, 0, 0, 0, 0, 0, 0, 0, 0, 0, 0, 0, 0, 0, 0, 0, 0, 0, 0, 0, 0, 0, 0, 0, 0, 0, 0, 0, 0, 0, 0, 0, 0, 0, 0, 0, 0, 0, 0, 0, 0, 0, 0, 0, 0, 0, 0, 0, 0, 0], [0, 0, 0, 0, 0, 0, 0, 0, 0, 0, 0, 0, 0, 0, 0, 0, 0, 0, 0, 0, 0, 0, 0, 0, 0, 0, 0, 0, 0, 0, 0, 0, 0, 0, 0, 0, 0, 0, 0, 0, 0, 0, 0, 0, 0, 0, 0, 0, 0, 0], [0, 0, 0, 0, 0, 0, 0, 0, 0, 0, 0, 0, 0, 0, 0, 0, 0, 0, 0, 0, 0, 0, 0, 0, 0, 0, 0, 0, 0, 0, 0, 0, 0, 0, 0, 0, 0, 0, 0, 0, 0, 0, 0, 0, 0, 0, 0, 0, 0, 0], [0, 0, 0, 0, 0, 0, 0, 0, 0, 0, 0, 0, 0, 0, 0, 0, 0, 0, 0, 0, 0, 0, 0, 0, 0, 0, 0, 0, 0, 0, 0, 0, 0, 0, 0, 0, 0, 0, 0, 0, 0, 0, 0, 0, 0, 0, 0, 0, 0, 0], [0, 0, 0, 0, 0, 0, 0, 0, 0, 0, 0, 0, 0, 0, 0, 0, 0, 0, 0, 0, 0, 0, 0, 0, 0, 0, 0, 0, 0, 0, 0, 0, 0, 0, 0, 0, 0, 0, 0, 0, 0, 0, 0, 0, 0, 0, 0, 0, 0, 0], [0, 0, 0, 0, 0, 0, 0, 0, 0, 0, 0, 0, 0, 0, 0, 0, 0, 0, 0, 0, 0, 0, 0, 0, 0, 0, 0, 0, 0, 0, 0, 0, 0, 0, 0, 0, 0, 0, 0, 0, 0, 0, 0, 0, 0, 0, 0, 0, 0, 0], [0, 0, 0, 0, 0, 0, 0, 0, 0, 0, 0, 0, 0, 0, 0, 0, 0, 0, 0, 0, 0, 0, 0, 0, 0, 0, 0, 0, 0, 0, 0, 0, 0, 0, 0, 0, 0, 0, 0, 0, 0, 0, 0, 0, 0, 0, 0, 0, 0, 0], [0, 0, 0, 0, 0, 0, 0, 0, 0, 0, 0, 0, 0, 0, 0, 0, 0, 0, 0, 0, 0, 0, 0, 0, 0, 0, 0, 0, 0, 0, 0, 0, 0, 0, 0, 0, 0, 0, 0, 0, 0, 0, 0, 0, 0, 0, 0, 0, 0, 0], [41, 38, 43, 39, 35, 49, 39, 36, 37, 38, 44, 50, 35, 34, 50, 45, 50, 36, 47, 39, 48, 46, 41, 39, 42, 33, 42, 41, 33, 32, 39, 46, 34, 36, 39, 40, 46, 35, 30, 38, 30, 46, 36, 30, 44, 43, 50, 45, 46, 44]], [[0, 0, 0, 0, 0, 0, 0, 0, 0, 0, 0, 0, 0, 0, 0, 0, 0, 0, 0, 0, 0, 0, 0, 0, 0, 0, 0, 0, 0, 0, 0, 0, 0, 0, 0, 0, 0, 0, 0, 0, 0, 0, 0, 0, 0, 0, 0, 0, 0, 0], [0, 0, 0, 0, 0, 0, 0, 0, 0, 0, 0, 0, 0, 0, 0, 0, 0, 0, 0, 0, 0, 0, 0, 0, 0, 0, 0, 0, 0, 0, 0, 0, 0, 0, 0, 0, 0, 0, 0, 0, 0, 0, 0, 0, 0, 0, 0, 0, 0, 0], [0, 0, 0, 0, 0, 0, 0, 0, 0, 0, 0, 0, 0, 0, 0, 0, 0, 0, 0, 0, 0, 0, 0, 0, 0, 0, 0, 0, 0, 0, 0, 0, 0, 0, 0, 0, 0, 0, 0, 0, 0, 0, 0, 0, 0, 0, 0, 0, 0, 0], [0, 0, 0, 0, 0, 0, 0, 0, 0, 0, 0, 0, 0, 0, 0, 0, 0, 0, 0, 0, 0, 0, 0, 0, 0, 0, 0, 0, 0, 0, 0, 0, 0, 0, 0, 0, 0, 0, 0, 0, 0, 0, 0, 0, 0, 0, 0, 0, 0, 0], [0, 0, 0, 0, 0, 0, 0, 0, 0, 0, 0, 0, 0, 0, 0, 0, 0, 0, 0, 0, 0, 0, 0, 0, 0, 0, 0, 0, 0, 0, 0, 0, 0, 0, 0, 0, 0, 0, 0, 0, 0, 0, 0, 0, 0, 0, 0, 0, 0, 0], [0, 0, 0, 0, 0, 0, 0, 0, 0, 0, 0, 0, 0, 0, 0, 0, 0, 0, 0, 0, 0, 0, 0, 0, 0, 0, 0, 0, 0, 0, 0, 0, 0, 0, 0, 0, 0, 0, 0, 0, 0, 0, 0, 0, 0, 0, 0, 0, 0, 0], [0, 0, 0, 0, 0, 0, 0, 0, 0, 0, 0, 0, 0, 0, 0, 0, 0, 0, 0, 0, 0, 0, 0, 0, 0, 0, 0, 0, 0, 0, 0, 0, 0, 0, 0, 0, 0, 0, 0, 0, 0, 0, 0, 0, 0, 0, 0, 0, 0, 0], [0, 0, 0, 0, 0, 0, 0, 0, 0, 0, 0, 0, 0, 0, 0, 0, 0, 0, 0, 0, 0, 0, 0, 0, 0, 0, 0, 0, 0, 0, 0, 0, 0, 0, 0, 0, 0, 0, 0, 0, 0, 0, 0, 0, 0, 0, 0, 0, 0, 0], [0, 0, 0, 0, 0, 0, 0, 0, 0, 0, 0, 0, 0, 0, 0, 0, 0, 0, 0, 0, 0, 0, 0, 0, 0, 0, 0, 0, 0, 0, 0, 0, 0, 0, 0, 0, 0, 0, 0, 0, 0, 0, 0, 0, 0, 0, 0, 0, 0, 0], [0, 0, 0, 0, 0, 0, 0, 0, 0, 0, 0, 0, 0, 0, 0, 0, 0, 0, 0, 0, 0, 0, 0, 0, 0, 0, 0, 0, 0, 0, 0, 0, 0, 0, 0, 0, 0, 0, 0, 0, 0, 0, 0, 0, 0, 0, 0, 0, 0, 0]]];

q = [[[5, 124], [22, 122], [22, 111], [15, 120], [13, 124], [22, 119], [6, 123], [20, 125], [17, 114], [16, 118], [6, 109], [22, 110], [18, 110], [22, 125], [9, 113], [21, 121], [22, 115], [23, 117], [21, 106], [6, 122], [9, 105], [18, 115], [12, 112], [9, 117], [5, 125], [24, 121], [24, 122], [21, 116], [6, 114], [8, 107], [17, 118], [7, 106], [13, 122], [12, 118], [11, 118], [23, 119], [5, 122], [12, 119], [15, 111], [25, 114], [20, 116], [8, 125], [6, 117], [10, 114], [12, 112], [15, 116], [7, 122], [11, 106], [9, 115], [8, 117]], [[16, 122], [19, 107], [17, 125], [23, 115], [9, 119], [6, 118], [22, 105], [18, 115], [17, 105], [18, 119], [12, 125], [15, 113], [12, 118], [24, 118], [10, 112], [23, 114], [16, 111], [25, 113], [16, 123], [16, 109], [22, 112], [7, 119], [14, 105], [23, 113], [6, 108], [17, 122], [9, 124], [9, 115], [8, 114], [6, 108], [7, 111], [15, 110], [10, 115], [17, 118], [8, 124], [15, 113], [22, 121], [7, 111], [20, 117], [11, 109], [9, 124], [6, 118], [20, 122], [9, 109], [18, 121], [5, 118], [15, 122], [5, 110], [12, 115], [19, 123]], [[17, 119], [16, 112], [20, 115], [16, 121], [22, 120], [21, 118], [13, 116], [20, 111], [9, 124], [18, 105], [20, 119], [24, 105], [16, 107], [20, 114], [15, 106], [5, 117], [18, 121], [5, 113], [18, 122], [24, 108], [9, 108], [23, 109], [7, 118], [11, 105], [25, 116], [17, 118], [12, 117], [16, 123], [6, 106], [16, 122], [22, 117], [7, 112], [21, 111], [6, 107], [16, 119], [21, 117], [11, 124], [23, 125], [8, 125], [5, 115], [12, 111], [24, 122], [8, 115], [8, 118], [15, 123], [13, 106], [21, 113], [8, 125], [16, 111], [18, 108]], [[15, 109], [12, 119], [20, 118], [23, 117], [9, 108], [22, 112], [14, 108], [9, 105], [17, 123], [15, 110], [10, 109], [11, 105], [8, 124], [23, 119], [13, 110], [17, 115], [7, 115], [17, 124], [15, 123], [16, 122], [15, 122], [8, 115], [19, 118], [6, 112], [11, 110], [8, 122], [15, 125], [20, 112], [13, 112], [11, 114], [10, 107], [12, 120], [11, 106], [12, 122], [22, 105], [11, 118], [13, 115], [18, 119], [7, 124], [6, 119], [13, 114], [23, 121], [23, 119], [18, 123], [17, 114], [10, 120], [18, 107], [17, 107], [13, 110], [23, 117]], [[17, 124], [21, 118], [18, 111], [11, 114], [19, 108], [24, 122], [11, 118], [23, 120], [15, 124], [7, 114], [14, 125], [13, 114], [18, 110], [6, 120], [18, 105], [19, 112], [15, 117], [8, 108], [17, 116], [5, 110], [20, 112], [18, 110], [16, 123], [15, 106], [10, 114], [21, 111], [16, 118], [24, 106], [25, 112], [17, 124], [23, 121], [22, 105], [20, 107], [9, 122], [15, 119], [13, 120], [15, 118], [18, 125], [15, 117], [15, 114], [22, 123], [12, 124], [6, 122], [16, 119], [19, 120], [23, 119], [24, 106], [25, 112], [10, 125], [23, 112]], [[23, 123], [16, 114], [24, 115], [21, 123], [14, 123], [24, 120], [11, 116], [8, 124], [7, 116], [16, 114], [16, 116], [13, 111], [19, 122], [6, 106], [7, 123], [11, 125], [24, 123], [19, 109], [20, 122], [24, 121], [13, 112], [23, 106], [19, 116], [25, 110], [17, 113], [12, 118], [9, 124], [11, 111], [6, 108], [20, 109], [19, 109], [23, 123], [14, 123], [12, 118], [21, 122], [17, 123], [22, 117], [23, 124], [11, 122], [7, 110], [8, 106], [11, 115], [17, 122], [17, 123], [25, 120], [14, 107], [10, 105], [7, 105], [21, 114], [21, 123]], [[12, 122], [20, 113], [15, 123], [17, 114], [21, 119], [8, 111], [17, 116], [9, 121], [9, 122], [19, 114], [6, 109], [21, 108], [5, 113], [13, 106], [17, 112], [18, 122], [17, 119], [8, 119], [11, 116], [7, 115], [17, 120], [14, 120], [6, 117], [6, 113], [18, 117], [21, 114], [13, 122], [12, 118], [18, 120], [14, 111], [19, 110], [11, 109], [19, 120], [10, 111], [5, 117], [19, 125], [8, 123], [22, 105], [18, 109], [14, 112], [17, 115], [23, 110], [14, 109], [5, 106], [16, 121], [22, 125], [18, 109], [20, 105], [13, 112], [10, 116]], [[9, 115], [14, 125], [14, 116], [24, 109], [11, 110], [9, 112], [14, 121], [21, 106], [21, 107], [21, 121], [8, 108], [18, 116], [23, 119], [21, 124], [25, 111], [11, 118], [24, 116], [16, 122], [24, 108], [6, 124], [15, 107], [24, 111], [14, 113], [6, 106], [25, 116], [9, 120], [8, 125], [24, 121], [12, 113], [25, 111], [23, 120], [11, 109], [19, 119], [9, 122], [8, 106], [10, 115], [11, 106], [18, 119], [6, 113], [12, 109], [12, 118], [20, 110], [6, 113], [11, 107], [10, 106], [22, 114], [24, 112], [11, 121], [8, 115], [21, 117]], [[6, 121], [16, 109], [24, 108], [8, 114], [7, 110], [11, 124], [22, 124], [21, 109], [7, 105], [19, 111], [6, 114], [19, 114], [17, 122], [12, 116], [22, 111], [22, 115], [25, 121], [22, 107], [19, 105], [22, 120], [15, 110], [17, 123], [19, 118], [21, 109], [7, 106], [16, 111], [8, 106], [6, 108], [9, 118], [14, 108], [12, 112], [10, 116], [14, 119], [6, 121], [22, 118], [5, 110], [7, 108], [5, 110], [14, 110], [6, 108], [9, 119], [19, 119], [19, 113], [11, 107], [16, 106], [5, 111], [16, 119], [8, 115], [6, 109], [8, 123]], [[8, 116], [18, 121], [10, 112], [17, 123], [18, 116], [10, 125], [16, 105], [20, 116], [17, 106], [6, 119], [23, 122], [15, 113], [5, 122], [8, 108], [6, 108], [9, 117], [8, 124], [23, 112], [8, 112], [18, 114], [16, 115], [15, 120], [14, 108], [23, 109], [11, 111], [24, 106], [16, 105], [23, 106], [14, 108], [8, 105], [25, 112], [17, 116], [17, 121], [21, 125], [18, 106], [22, 106], [17, 106], [11, 125], [17, 121], [14, 122], [11, 111], [7, 121], [18, 119], [23, 124], [16, 123], [17, 120], [24, 123], [5, 111], [12, 111], [21, 105]]];
Q = [[69, 467], [66, 463], [71, 461], [70, 462], [70, 464], [56, 466], [56, 461], [60, 458], [57, 454], [66, 459]];
